TCS_Benchmarks/redos_fix/corpus2_output_distinct_4774_4773_20_0.txt
(.*)(\S+)
(.*)(\s+mail exchanger = (\d+) )(\S+)